p tw 900 1795
1 380
1 381
1 515
1 516
1 639
1 640
1 743
1 744
2 759
2 760
3 775
3 776
3 858
3 859
3 892
3 893
4 331
4 332
5 883
5 884
6 761
6 762
7 840
7 841
8 102
8 408
8 409
8 540
8 541
8 583
8 646
8 647
9 308
9 309
9 552
9 553
9 597
9 598
9 658
9 659
10 684
10 685
11 395
11 396
11 485
11 486
11 598
11 599
11 670
11 671
12 711
12 712
12 766
12 767
13 727
13 728
13 785
13 786
14 418
14 419
14 793
14 794
15 309
15 310
15 486
15 487
15 599
15 600
15 671
15 672
16 310
16 311
16 878
16 879
17 442
17 443
18 781
18 782
18 821
18 822
19 360
19 361
19 494
19 495
19 610
19 611
19 723
19 724
20 323
20 324
20 549
20 550
20 655
20 656
21 568
21 569
22 887
22 888
23 402
23 403
24 898
24 899
25 410
25 411
25 783
25 784
26 330
26 331
26 695
26 696
26 811
26 812
26 828
26 829
27 306
27 307
28 460
28 461
29 328
29 329
29 694
29 695
30 574
30 575
30 769
30 770
31 370
31 371
31 581
31 582
31 627
31 628
32 522
32 523
33 329
33 330
34 354
34 355
35 801
35 802
36 752
36 753
37 463
37 464
37 869
37 870
38 520
38 521
39 567
39 568
40 771
40 772
41 376
41 377
41 895
41 896
42 435
42 436
43 768
43 769
44 791
44 792
45 875
45 876
46 471
46 472
46 737
46 738
47 569
47 570
47 800
47 801
48 312
48 313
49 754
49 755
50 847
50 848
51 373
51 374
51 539
51 540
51 631
51 632
51 645
51 646
52 470
52 471
52 884
52 885
53 427
53 428
53 806
53 807
53 854
53 855
54 796
54 797
55 313
55 314
56 307
56 308
56 484
56 485
56 596
56 597
56 669
56 670
57 521
57 522
58 443
58 444
59 91
59 118
59 381
59 382
59 816
59 833
60 406
60 407
60 780
60 781
60 834
60 835
61 392
61 393
61 871
61 872
62 409
62 410
62 538
62 539
62 644
62 645
63 808
63 809
64 303
64 304
64 662
64 663
65 415
65 416
65 499
65 500
65 615
65 616
65 686
65 687
66 416
66 417
66 870
66 871
67 844
67 845
68 377
68 378
68 897
68 898
69 177
69 778
69 779
69 861
70 393
70 394
70 757
70 758
71 767
71 768
72 674
72 675
73 475
73 476
74 359
74 360
75 88
75 404
75 405
75 553
75 659
76 839
76 840
77 434
77 435
78 419
78 420
78 619
78 620
78 848
78 849
79 578
79 579
80 429
80 430
81 728
81 729
81 786
81 787
82 837
82 838
83 787
83 788
84 899
84 900
85 451
85 452
85 718
85 719
86 343
86 344
87 258
87 422
87 423
87 519
87 624
87 625
88 421
88 422
88 553
88 659
89 314
89 315
89 859
89 860
90 845
90 846
91 799
91 800
91 833
92 430
92 431
92 890
92 891
93 853
93 854
94 396
94 397
94 573
94 574
95 444
95 445
95 548
95 549
95 595
95 596
95 654
95 655
96 474
96 475
96 894
96 895
97 273
97 534
98 468
98 469
98 876
98 877
99 880
99 881
100 366
100 367
100 501
100 502
100 618
100 619
100 731
100 732
101 776
101 777
101 832
101 833
102 290
102 448
102 449
102 583
102 660
103 401
103 402
103 547
103 548
103 652
103 653
103 676
103 677
104 533
104 534
105 756
105 757
106 351
106 352
106 488
106 489
106 602
106 603
106 712
106 713
107 446
107 447
107 760
107 761
108 523
108 524
109 327
109 328
109 509
109 510
109 541
109 542
109 632
109 633
109 647
109 648
109 693
109 694
109 856
109 857
110 527
110 528
111 885
111 886
112 387
112 388
113 556
113 557
114 797
114 798
115 441
115 442
115 557
115 558
115 704
115 705
115 749
115 750
116 438
116 439
116 579
116 580
116 698
116 699
116 813
116 814
117 564
117 565
117 795
117 796
118 146
118 297
118 382
118 383
118 516
118 580
118 641
118 744
118 745
118 816
119 432
119 433
119 577
119 578
119 696
119 697
119 812
119 813
120 428
120 429
120 508
120 509
120 633
120 634
120 692
120 693
121 531
121 532
122 464
122 465
122 528
122 529
122 794
122 795
123 563
123 564
124 566
124 567
124 798
124 799
125 447
125 448
125 714
125 715
126 777
126 778
127 338
127 339
128 472
128 473
128 576
128 577
128 634
128 635
128 809
128 810
128 823
128 824
129 389
129 390
129 480
129 481
129 542
129 543
129 588
129 589
129 648
129 649
129 666
129 667
130 317
130 318
130 551
130 552
130 607
130 608
130 657
130 658
131 358
131 359
131 893
131 894
132 829
132 830
133 881
133 882
134 301
134 900
135 400
135 401
136 390
136 391
136 482
136 483
136 590
136 591
136 668
136 669
136 841
136 842
137 532
137 533
138 688
138 689
139 461
139 462
140 835
140 836
141 364
141 365
142 874
142 875
143 525
143 526
144 344
144 345
144 544
144 545
144 650
144 651
145 739
145 740
146 228
146 384
146 385
146 516
146 641
146 745
147 353
147 354
148 335
148 336
149 383
149 384
150 462
150 463
151 425
151 426
151 570
151 571
151 626
151 627
151 805
151 806
151 820
151 821
152 417
152 418
153 814
153 815
154 758
154 759
155 860
155 861
156 862
156 863
157 561
157 562
158 315
158 316
158 491
158 492
158 604
158 605
158 675
158 676
159 405
159 406
160 872
160 873
161 440
161 441
161 703
161 704
162 346
162 347
162 708
162 709
163 454
163 455
163 605
163 606
163 719
163 720
164 318
164 319
164 680
164 681
165 347
165 348
165 593
165 594
166 302
166 303
166 477
166 478
166 584
166 585
166 661
166 662
167 524
167 525
168 530
168 531
169 465
169 466
170 424
170 425
170 804
170 805
170 817
170 818
171 350
171 351
171 710
171 711
172 575
172 576
173 334
173 335
173 512
173 513
173 637
173 638
173 699
173 700
174 857
174 858
175 345
175 346
175 483
175 484
175 592
175 593
175 707
175 708
176 679
176 680
176 784
176 785
177 861
178 850
178 851
179 555
179 556
180 420
180 421
180 503
180 504
180 621
180 622
180 689
180 690
181 717
181 718
182 855
182 856
183 802
183 803
184 391
184 392
185 305
185 306
185 479
185 480
185 587
185 588
185 664
185 665
186 665
186 666
186 750
186 751
187 394
187 395
188 319
188 320
188 498
188 499
188 614
188 615
188 682
188 683
189 762
189 763
190 729
190 730
191 863
191 864
192 772
192 773
192 831
192 832
193 367
193 368
193 546
193 547
193 617
193 618
193 653
193 654
194 355
194 356
195 304
195 305
195 478
195 479
195 586
195 587
195 663
195 664
196 571
196 572
196 765
196 766
196 819
196 820
197 322
197 323
197 500
197 501
197 616
197 617
197 687
197 688
198 379
198 380
198 513
198 514
198 638
198 639
198 741
198 742
199 466
199 467
200 748
200 749
201 348
201 349
201 709
201 710
202 572
202 573
202 764
202 765
203 385
203 386
204 755
204 756
205 375
205 376
205 510
205 511
205 635
205 636
205 738
205 739
206 411
206 412
206 681
206 682
207 852
207 853
208 407
208 408
208 496
208 497
208 537
208 538
208 612
208 613
208 643
208 644
208 678
208 679
209 324
209 325
209 505
209 506
209 622
209 623
209 690
209 691
210 326
210 327
210 628
210 629
211 701
211 702
212 838
212 839
213 455
213 456
213 492
213 493
213 608
213 609
213 721
213 722
214 873
214 874
215 403
215 404
216 436
216 437
217 526
217 527
217 774
217 775
218 810
218 811
218 825
218 826
219 357
219 358
220 753
220 754
220 830
220 831
221 341
221 342
221 866
221 867
222 836
222 837
223 349
223 350
223 763
223 764
223 818
223 819
223 851
223 852
224 362
224 363
225 433
225 434
225 511
225 512
225 518
225 519
225 636
225 637
225 697
225 698
226 725
226 726
227 365
227 366
227 560
227 561
227 730
227 731
227 790
227 791
228 234
228 476
228 745
229 459
229 460
230 397
230 398
230 487
230 488
230 600
230 601
230 672
230 673
231 332
231 333
232 879
232 880
233 339
233 340
233 702
233 703
234 476
234 514
234 515
234 640
234 641
234 742
234 743
235 311
235 312
235 489
235 490
235 601
235 602
235 673
235 674
236 372
236 373
236 807
236 808
236 822
236 823
237 889
237 890
238 386
238 387
238 585
238 586
238 746
238 747
239 815
239 816
240 412
240 413
240 559
240 560
240 788
240 789
241 320
241 321
242 565
242 566
243 399
243 400
243 886
243 887
244 803
244 804
245 882
245 883
246 352
246 353
246 713
246 714
247 843
247 844
248 413
248 414
249 456
249 457
249 493
249 494
249 609
249 610
249 722
249 723
250 337
250 338
251 842
251 843
252 449
252 450
252 490
252 491
252 603
252 604
252 715
252 716
253 439
253 440
253 864
253 865
254 667
254 668
255 336
255 337
255 700
255 701
256 458
256 459
256 497
256 498
256 613
256 614
256 726
256 727
257 683
257 684
258 445
258 446
258 519
258 594
258 595
259 867
259 868
260 369
260 370
260 535
260 536
260 625
260 626
261 452
261 453
261 896
261 897
262 363
262 364
262 782
262 783
263 340
263 341
263 481
263 482
263 589
263 590
263 706
263 707
264 437
264 438
264 545
264 546
264 651
264 652
265 473
265 474
265 888
265 889
266 734
266 735
267 361
267 362
267 554
267 555
267 779
267 780
268 705
268 706
269 450
269 451
269 770
269 771
269 826
269 827
270 423
270 424
271 325
271 326
271 877
271 878
272 398
272 399
273 534
274 453
274 454
274 606
274 607
275 457
275 458
275 495
275 496
275 611
275 612
275 724
275 725
276 374
276 375
276 891
276 892
277 426
277 427
277 506
277 507
277 629
277 630
277 691
277 692
278 378
278 379
278 740
278 741
279 388
279 389
280 865
280 866
281 773
281 774
282 868
282 869
283 467
283 468
283 504
283 505
283 623
283 624
283 733
283 734
284 720
284 721
285 414
285 415
286 368
286 369
286 502
286 503
286 550
286 551
286 620
286 621
286 656
286 657
286 732
286 733
286 849
286 850
287 371
287 372
288 558
288 559
288 751
288 752
288 824
288 825
289 356
289 357
289 716
289 717
290 342
290 343
290 543
290 544
290 582
290 583
290 591
290 592
290 649
290 650
290 660
290 846
290 847
291 321
291 322
291 562
291 563
291 685
291 686
291 792
291 793
292 431
292 432
293 747
293 748
294 536
294 537
294 642
294 643
295 316
295 317
295 677
295 678
296 469
296 470
296 507
296 508
296 517
296 518
296 630
296 631
296 735
296 736
297 333
297 334
297 580
298 789
298 790
298 827
298 828
299 529
299 530
300 736
300 737
301 900
302 303
303 304
304 305
305 306
306 307
307 308
308 309
309 310
310 311
311 312
312 313
313 314
314 315
315 316
316 317
317 318
318 319
319 320
320 321
321 322
322 323
323 324
324 325
325 326
326 327
327 328
328 329
329 330
330 331
331 332
332 333
333 334
334 335
335 336
336 337
337 338
338 339
339 340
340 341
341 342
342 343
343 344
344 345
345 346
346 347
347 348
348 349
349 350
350 351
351 352
352 353
353 354
354 355
355 356
356 357
357 358
358 359
359 360
360 361
361 362
362 363
363 364
364 365
365 366
366 367
367 368
368 369
369 370
370 371
371 372
372 373
373 374
374 375
375 376
376 377
377 378
378 379
379 380
380 381
381 382
382 383
383 384
384 385
385 386
386 387
387 388
388 389
389 390
390 391
391 392
392 393
393 394
394 395
395 396
396 397
397 398
398 399
399 400
400 401
401 402
402 403
403 404
404 405
405 406
406 407
407 408
408 409
409 410
410 411
411 412
412 413
413 414
414 415
415 416
416 417
417 418
418 419
419 420
420 421
421 422
422 423
423 424
424 425
425 426
426 427
427 428
428 429
429 430
430 431
431 432
432 433
433 434
434 435
435 436
436 437
437 438
438 439
439 440
440 441
441 442
442 443
443 444
444 445
445 446
446 447
447 448
448 449
449 450
450 451
451 452
452 453
453 454
454 455
455 456
456 457
457 458
458 459
459 460
460 461
461 462
462 463
463 464
464 465
465 466
466 467
467 468
468 469
469 470
470 471
471 472
472 473
473 474
474 475
475 476
477 478
478 479
479 480
480 481
481 482
482 483
483 484
484 485
485 486
486 487
487 488
488 489
489 490
490 491
491 492
492 493
493 494
494 495
495 496
496 497
497 498
498 499
499 500
500 501
501 502
502 503
503 504
504 505
505 506
506 507
507 508
508 509
509 510
510 511
511 512
512 513
513 514
514 515
515 516
517 518
518 519
520 521
521 522
522 523
523 524
524 525
525 526
526 527
527 528
528 529
529 530
530 531
531 532
532 533
533 534
535 536
536 537
537 538
538 539
539 540
540 541
541 542
542 543
543 544
544 545
545 546
546 547
547 548
548 549
549 550
550 551
551 552
552 553
554 555
555 556
556 557
557 558
558 559
559 560
560 561
561 562
562 563
563 564
564 565
565 566
566 567
567 568
568 569
569 570
570 571
571 572
572 573
573 574
574 575
575 576
576 577
577 578
578 579
579 580
581 582
582 583
584 585
585 586
586 587
587 588
588 589
589 590
590 591
591 592
592 593
593 594
594 595
595 596
596 597
597 598
598 599
599 600
600 601
601 602
602 603
603 604
604 605
605 606
606 607
607 608
608 609
609 610
610 611
611 612
612 613
613 614
614 615
615 616
616 617
617 618
618 619
619 620
620 621
621 622
622 623
623 624
624 625
625 626
626 627
627 628
628 629
629 630
630 631
631 632
632 633
633 634
634 635
635 636
636 637
637 638
638 639
639 640
640 641
642 643
643 644
644 645
645 646
646 647
647 648
648 649
649 650
650 651
651 652
652 653
653 654
654 655
655 656
656 657
657 658
658 659
661 662
662 663
663 664
664 665
665 666
666 667
667 668
668 669
669 670
670 671
671 672
672 673
673 674
674 675
675 676
676 677
677 678
678 679
679 680
680 681
681 682
682 683
683 684
684 685
685 686
686 687
687 688
688 689
689 690
690 691
691 692
692 693
693 694
694 695
695 696
696 697
697 698
698 699
699 700
700 701
701 702
702 703
703 704
704 705
705 706
706 707
707 708
708 709
709 710
710 711
711 712
712 713
713 714
714 715
715 716
716 717
717 718
718 719
719 720
720 721
721 722
722 723
723 724
724 725
725 726
726 727
727 728
728 729
729 730
730 731
731 732
732 733
733 734
734 735
735 736
736 737
737 738
738 739
739 740
740 741
741 742
742 743
743 744
744 745
746 747
747 748
748 749
749 750
750 751
751 752
752 753
753 754
754 755
755 756
756 757
757 758
758 759
759 760
760 761
761 762
762 763
763 764
764 765
765 766
766 767
767 768
768 769
769 770
770 771
771 772
772 773
773 774
774 775
775 776
776 777
777 778
778 779
779 780
780 781
781 782
782 783
783 784
784 785
785 786
786 787
787 788
788 789
789 790
790 791
791 792
792 793
793 794
794 795
795 796
796 797
797 798
798 799
799 800
800 801
801 802
802 803
803 804
804 805
805 806
806 807
807 808
808 809
809 810
810 811
811 812
812 813
813 814
814 815
815 816
817 818
818 819
819 820
820 821
821 822
822 823
823 824
824 825
825 826
826 827
827 828
828 829
829 830
830 831
831 832
832 833
834 835
835 836
836 837
837 838
838 839
839 840
840 841
841 842
842 843
843 844
844 845
845 846
846 847
847 848
848 849
849 850
850 851
851 852
852 853
853 854
854 855
855 856
856 857
857 858
858 859
859 860
860 861
862 863
863 864
864 865
865 866
866 867
867 868
868 869
869 870
870 871
871 872
872 873
873 874
874 875
875 876
876 877
877 878
878 879
879 880
880 881
881 882
882 883
883 884
884 885
885 886
886 887
887 888
888 889
889 890
890 891
891 892
892 893
893 894
894 895
895 896
896 897
897 898
898 899
899 900
